data/mip_solutions/furman_sahinidis/transshipment/22sp-ph_gurobi.sol
Elapsed time: 0.12558889389
Nodes explored: 0
Upper bound: 26.0
Lower bound: 26.0
y[0,5]=1
y[1,0]=1
y[1,2]=1
y[1,4]=1
y[1,8]=1
y[1,11]=1
y[2,11]=1
y[3,5]=1
y[4,1]=1
y[4,11]=1
y[5,1]=1
y[6,5]=1
y[6,7]=1
y[6,8]=1
y[6,9]=1
y[6,11]=1
y[7,1]=1
y[8,1]=1
y[8,6]=1
y[8,8]=1
y[8,10]=1
y[8,11]=1
y[9,0]=1
y[10,5]=1
y[11,3]=1
y[11,8]=1
q[0,5,14]=12.0
q[1,0,8]=8.0
q[1,0,9]=72.0
q[1,0,10]=32.0
q[1,0,11]=80.0
q[1,0,12]=8.0
q[1,0,13]=48.0
q[1,0,14]=24.0
q[1,0,15]=48.0
q[1,0,16]=16.0
q[1,0,17]=142.0
q[1,2,14]=90.0
q[1,2,15]=180.0
q[1,2,16]=60.0
q[1,4,8]=7.6
q[1,8,3]=140.0
q[1,8,4]=58.8
q[1,8,5]=67.2
q[1,8,6]=12.4
q[1,8,7]=309.6
q[1,11,17]=136.4
q[2,11,17]=1242.0
q[3,5,15]=5.9
q[4,1,10]=184.0
q[4,1,11]=209.5
q[4,1,12]=72.0
q[4,1,13]=432.0
q[4,1,14]=206.5
q[4,11,17]=1196.0
q[5,1,16]=3.5
q[6,5,8]=16.0
q[6,5,9]=144.0
q[6,5,10]=64.0
q[6,5,11]=160.0
q[6,5,12]=16.0
q[6,5,13]=96.0
q[6,5,14]=36.0
q[6,5,15]=90.1
q[6,5,16]=28.54
q[6,7,6]=8.0
q[6,8,6]=10.0
q[6,8,7]=396.0
q[6,9,10]=2.2
q[6,11,17]=427.16
q[7,1,14]=9.5
q[8,1,8]=72.0
q[8,1,9]=648.0
q[8,1,10]=104.0
q[8,1,11]=510.5
q[8,1,15]=432.0
q[8,1,16]=140.5
q[8,6,3]=4.1
q[8,8,1]=2006.4
q[8,8,2]=360.5
q[8,8,3]=612.0
q[8,8,4]=392.4
q[8,8,5]=158.4
q[8,8,6]=52.8
q[8,8,7]=948.8
q[8,10,4]=3.8
q[8,11,17]=1896.2
q[9,0,17]=2.0
q[10,5,16]=3.46
q[11,3,1]=12.0
q[11,8,0]=1955.2
q[11,8,1]=851.2
q[11,8,2]=391.5
r[0,13]=12.0
r[0,14]=12.0
r[1,5]=25.2
r[1,7]=1.6
r[1,9]=110.4
r[1,10]=164.4
r[1,11]=188.4
r[1,12]=248.4
r[1,13]=254.4
r[1,14]=290.4
r[1,15]=218.4
r[1,16]=74.4
r[1,17]=26.4
r[2,14]=276.0
r[2,15]=414.0
r[2,16]=690.0
r[2,17]=782.0
r[4,12]=250.5
r[4,13]=224.5
r[4,14]=68.5
r[4,16]=276.0
r[4,17]=368.0
r[5,15]=3.5
r[5,16]=3.5
r[6,9]=146.0
r[6,10]=164.0
r[6,11]=169.8
r[6,12]=189.8
r[6,13]=191.8
r[6,14]=203.8
r[6,15]=221.8
r[6,16]=239.7
r[6,17]=247.16
r[8,3]=167.5
r[8,4]=79.4
r[8,8]=212.8
r[8,9]=616.0
r[8,10]=443.2
r[8,11]=550.4
r[8,12]=567.9
r[8,13]=620.7
r[8,14]=937.5
r[8,15]=1095.9
r[8,16]=980.7
r[8,17]=945.8
r[11,1]=1254.7
r[11,2]=391.5
